Results/Experiment 1 Results/New Benchmark/RES_60/output_p1_0.00_p2_0.00_n_60_17.txt
solutions: 373248 nodes: 678154  modelTime: 110  solveTime: 2228  totalTime: 2344  modelSize: 7849  readTime: 6 matchingSize: 30
